*NODE, NSET=NALL
1, 0.0, 0.000000, 0.0
2, 0.0, 0.250000, 0.0
3, 0.0, 0.500000, 0.0
4, 0.0, 0.750000, 0.0
5, 0.0, 1.000000, 0.0
6, 0.0, 1.250000, 0.0
7, 0.0, 1.500000, 0.0
8, 0.0, 1.750000, 0.0
9, 0.0, 2.000000, 0.0
10, 0.0, 2.250000, 0.0
11, 0.0, 2.500000, 0.0
12, 0.0, 2.750000, 0.0
13, 0.0, 3.000000, 0.0
14, 0.0, 3.250000, 0.0
15, 0.0, 3.500000, 0.0
16, 0.0, 3.750000, 0.0
17, 0.0, 4.000000, 0.0
18, 0.0, 4.250000, 0.0
19, 0.0, 4.500000, 0.0
20, 0.0, 4.750000, 0.0
21, 0.0, 5.000000, 0.0
*ELEMENT, TYPE=B31, ELSET=EALL
1, 1, 2
2, 2, 3
3, 3, 4
4, 4, 5
5, 5, 6
6, 6, 7
7, 7, 8
8, 8, 9
9, 9, 10
10, 10, 11
11, 11, 12
12, 12, 13
13, 13, 14
14, 14, 15
15, 15, 16
16, 16, 17
17, 17, 18
18, 18, 19
19, 19, 20
20, 20, 21
*BEAM SECTION, ELSET=EALL, MATERIAL=M, SECTION=RECT
0.050000, 0.100000
0.d0,0.d0,1.d0
*MATERIAL, NAME=M
*ELASTIC
1.340000e+11, 0.3
*BOUNDARY
1, 1, 6
*STEP
*STATIC
*CLOAD
21, 3, 1000.0
*NODE FILE
U
*END STEP
