*NODE, NSET=NALL
1, 0.0, 0.000000, 0.0
2, 0.0, 0.296394, 0.0
3, 0.0, 0.592788, 0.0
4, 0.0, 0.889181, 0.0
5, 0.0, 1.185575, 0.0
6, 0.0, 1.481969, 0.0
7, 0.0, 1.778363, 0.0
8, 0.0, 2.074757, 0.0
9, 0.0, 2.371151, 0.0
10, 0.0, 2.667544, 0.0
11, 0.0, 2.963938, 0.0
12, 0.0, 3.260332, 0.0
13, 0.0, 3.556726, 0.0
14, 0.0, 3.853120, 0.0
15, 0.0, 4.149513, 0.0
16, 0.0, 4.445907, 0.0
17, 0.0, 4.742301, 0.0
18, 0.0, 5.038695, 0.0
19, 0.0, 5.335089, 0.0
20, 0.0, 5.631483, 0.0
21, 0.0, 5.927876, 0.0
*ELEMENT, TYPE=B31, ELSET=EALL
1, 1, 2
2, 2, 3
3, 3, 4
4, 4, 5
5, 5, 6
6, 6, 7
7, 7, 8
8, 8, 9
9, 9, 10
10, 10, 11
11, 11, 12
12, 12, 13
13, 13, 14
14, 14, 15
15, 15, 16
16, 16, 17
17, 17, 18
18, 18, 19
19, 19, 20
20, 20, 21
*ELSET, ELSET=E1
1
*BEAM SECTION, ELSET=E1, MATERIAL=CFRP, SECTION=RECT
0.030663, 0.122381
0.d0,0.d0,1.d0
*ELSET, ELSET=E2
2
*BEAM SECTION, ELSET=E2, MATERIAL=CFRP, SECTION=RECT
0.029539, 0.119209
0.d0,0.d0,1.d0
*ELSET, ELSET=E3
3
*BEAM SECTION, ELSET=E3, MATERIAL=CFRP, SECTION=RECT
0.028449, 0.115834
0.d0,0.d0,1.d0
*ELSET, ELSET=E4
4
*BEAM SECTION, ELSET=E4, MATERIAL=CFRP, SECTION=RECT
0.027389, 0.112253
0.d0,0.d0,1.d0
*ELSET, ELSET=E5
5
*BEAM SECTION, ELSET=E5, MATERIAL=CFRP, SECTION=RECT
0.026361, 0.108459
0.d0,0.d0,1.d0
*ELSET, ELSET=E6
6
*BEAM SECTION, ELSET=E6, MATERIAL=CFRP, SECTION=RECT
0.025362, 0.104446
0.d0,0.d0,1.d0
*ELSET, ELSET=E7
7
*BEAM SECTION, ELSET=E7, MATERIAL=CFRP, SECTION=RECT
0.024392, 0.100208
0.d0,0.d0,1.d0
*ELSET, ELSET=E8
8
*BEAM SECTION, ELSET=E8, MATERIAL=CFRP, SECTION=RECT
0.023451, 0.095735
0.d0,0.d0,1.d0
*ELSET, ELSET=E9
9
*BEAM SECTION, ELSET=E9, MATERIAL=CFRP, SECTION=RECT
0.022542, 0.091016
0.d0,0.d0,1.d0
*ELSET, ELSET=E10
10
*BEAM SECTION, ELSET=E10, MATERIAL=CFRP, SECTION=RECT
0.021665, 0.086037
0.d0,0.d0,1.d0
*ELSET, ELSET=E11
11
*BEAM SECTION, ELSET=E11, MATERIAL=CFRP, SECTION=RECT
0.020827, 0.080778
0.d0,0.d0,1.d0
*ELSET, ELSET=E12
12
*BEAM SECTION, ELSET=E12, MATERIAL=CFRP, SECTION=RECT
0.020033, 0.075218
0.d0,0.d0,1.d0
*ELSET, ELSET=E13
13
*BEAM SECTION, ELSET=E13, MATERIAL=CFRP, SECTION=RECT
0.019299, 0.069326
0.d0,0.d0,1.d0
*ELSET, ELSET=E14
14
*BEAM SECTION, ELSET=E14, MATERIAL=CFRP, SECTION=RECT
0.018645, 0.063062
0.d0,0.d0,1.d0
*ELSET, ELSET=E15
15
*BEAM SECTION, ELSET=E15, MATERIAL=CFRP, SECTION=RECT
0.018114, 0.056369
0.d0,0.d0,1.d0
*ELSET, ELSET=E16
16
*BEAM SECTION, ELSET=E16, MATERIAL=CFRP, SECTION=RECT
0.017780, 0.049171
0.d0,0.d0,1.d0
*ELSET, ELSET=E17
17
*BEAM SECTION, ELSET=E17, MATERIAL=CFRP, SECTION=RECT
0.017805, 0.041358
0.d0,0.d0,1.d0
*ELSET, ELSET=E18
18
*BEAM SECTION, ELSET=E18, MATERIAL=CFRP, SECTION=RECT
0.016758, 0.037543
0.d0,0.d0,1.d0
*ELSET, ELSET=E19
19
*BEAM SECTION, ELSET=E19, MATERIAL=CFRP, SECTION=RECT
0.014941, 0.036268
0.d0,0.d0,1.d0
*ELSET, ELSET=E20
20
*BEAM SECTION, ELSET=E20, MATERIAL=CFRP, SECTION=RECT
0.013278, 0.034761
0.d0,0.d0,1.d0
*MATERIAL, NAME=CFRP
*ELASTIC
1.340000e+11, 0.3
*DENSITY
1600.0
*BOUNDARY
1, 1, 6
*STEP
*STATIC
*CLOAD
1, 3, 222.0548
2, 3, 443.5542
3, 3, 441.8836
4, 3, 439.0850
5, 3, 435.1368
6, 3, 430.0073
7, 3, 423.6536
8, 3, 416.0196
9, 3, 407.0332
10, 3, 396.6026
11, 3, 384.6103
12, 3, 370.9047
13, 3, 355.2877
14, 3, 337.4941
15, 3, 317.1577
16, 3, 293.7509
17, 3, 266.4658
18, 3, 233.9493
19, 3, 193.5829
20, 3, 138.6732
21, 3, 0.0000
*NODE FILE
U
*EL FILE
S
*END STEP
